p cnf 120 298
a 10 8 6 4 2 36 34 32 30 28 26 24 22 21 92 99 107 1 20 0
d 65 36 1 0
d 100 92 20 0
d 3 2 0
d 5 4 0
d 7 6 0
d 9 8 0
d 11 10 0
d 12 10 0
d 13 10 0
d 14 8 10 0
d 15 6 8 10 0
d 16 4 6 8 10 0
d 17 2 4 6 8 10 0
d 18 1 2 4 6 8 10 0
d 19 1 2 4 6 8 10 0
d 23 22 0
d 25 24 0
d 27 26 0
d 29 28 0
d 31 30 0
d 33 32 0
d 35 34 0
d 37 36 0
d 38 36 2 4 6 8 10 0
d 39 34 36 2 4 6 8 10 0
d 40 32 34 36 2 4 6 8 10 0
d 41 30 32 34 36 2 4 6 8 10 0
d 42 28 30 32 34 36 2 4 6 8 10 0
d 43 26 28 30 32 34 36 2 4 6 8 10 0
d 44 24 26 28 30 32 34 36 2 4 6 8 10 0
d 45 22 24 26 28 30 32 34 36 2 4 6 8 10 0
d 46 21 22 24 26 28 30 32 34 36 2 4 6 8 10 0
d 47 21 22 24 26 28 30 32 34 36 2 4 6 8 10 0
d 48 20 21 22 24 26 28 30 32 34 36 2 4 6 8 10 0
d 49 20 21 22 24 26 28 30 32 34 36 2 4 6 8 10 0
d 50 1 2 4 6 8 10 20 21 22 24 26 28 30 32 34 36 0
d 51 10 0
d 52 10 0
d 53 8 10 0
d 54 8 10 0
d 55 10 8 0
d 56 6 8 10 0
d 57 6 8 10 0
d 58 10 8 6 0
d 59 4 6 8 10 0
d 60 4 6 8 10 0
d 61 10 8 6 4 0
d 62 2 4 6 8 10 0
d 63 2 4 6 8 10 0
d 64 10 8 6 4 2 0
d 66 36 2 4 6 8 10 0
d 67 36 1 2 4 6 8 10 0
d 68 10 8 6 4 2 36 1 0
d 69 34 36 2 4 6 8 10 0
d 70 34 36 2 4 6 8 10 0
d 71 10 8 6 4 2 36 1 34 0
d 72 32 34 36 2 4 6 8 10 0
d 73 32 34 36 2 4 6 8 10 0
d 74 10 8 6 4 2 36 1 34 32 0
d 75 30 32 34 36 2 4 6 8 10 0
d 76 30 32 34 36 2 4 6 8 10 0
d 77 10 8 6 4 2 36 1 34 32 30 0
d 78 28 30 32 34 36 2 4 6 8 10 0
d 79 28 30 32 34 36 2 4 6 8 10 0
d 80 10 8 6 4 2 36 1 34 32 30 28 0
d 81 26 28 30 32 34 36 2 4 6 8 10 0
d 82 26 28 30 32 34 36 2 4 6 8 10 0
d 83 10 8 6 4 2 36 1 34 32 30 28 26 0
d 84 24 26 28 30 32 34 36 2 4 6 8 10 0
d 85 24 26 28 30 32 34 36 2 4 6 8 10 0
d 86 10 8 6 4 2 36 1 34 32 30 28 26 24 0
d 87 22 24 26 28 30 32 34 36 2 4 6 8 10 0
d 88 22 24 26 28 30 32 34 36 2 4 6 8 10 0
d 89 10 8 6 4 2 36 1 34 32 30 28 26 24 22 0
d 90 21 22 24 26 28 30 32 34 36 2 4 6 8 10 0
d 91 10 8 6 4 2 36 1 34 32 30 28 26 24 22 21 0
d 93 92 21 22 24 26 28 30 32 34 36 2 4 6 8 10 0
d 94 21 0
d 95 21 22 24 26 28 30 32 34 36 2 4 6 8 10 0
d 96 92 21 22 24 26 28 30 32 34 36 2 4 6 8 10 0
d 97 92 21 22 24 26 28 30 32 34 36 2 4 6 8 10 0
d 98 10 8 6 4 2 36 1 34 32 30 28 26 24 22 21 92 0
d 101 99 92 20 0
d 102 92 0
d 103 92 21 22 24 26 28 30 32 34 36 2 4 6 8 10 0
d 104 99 92 21 22 24 26 28 30 32 34 36 2 4 6 8 10 0
d 105 99 92 20 21 22 24 26 28 30 32 34 36 2 4 6 8 10 0
d 106 10 8 6 4 2 36 1 34 32 30 28 26 24 22 21 92 99 20 0
d 108 99 0
d 109 99 92 20 0
d 110 107 99 92 20 0
d 111 99 92 21 22 24 26 28 30 32 34 36 2 4 6 8 10 0
d 112 107 99 92 21 22 24 26 28 30 32 34 36 2 4 6 8 10 0
d 113 107 99 92 20 21 22 24 26 28 30 32 34 36 2 4 6 8 10 0
d 114 10 8 6 4 2 36 1 34 32 30 28 26 24 22 21 92 99 20 107 0
d 115 107 0
d 116 107 99 92 20 0
d 117 107 99 92 21 22 24 26 28 30 32 34 36 2 4 6 8 10 0
d 118 107 99 92 20 21 22 24 26 28 30 32 34 36 2 4 6 8 10 0
d 119 10 8 6 4 2 36 1 34 32 30 28 26 24 22 21 92 99 20 107 0
d 120 1 2 4 6 8 10 20 21 22 24 26 28 30 32 34 36 92 99 107 0
3 2 0
-3 -2 0
5 4 0
-5 -4 0
7 6 0
-7 -6 0
9 8 0
-9 -8 0
11 10 0
-11 -10 0
12 -10 0
12 -11 0
-12 10 11 0
-13 11 0
-13 12 0
13 -11 -12 0
-14 9 0
-14 13 0
14 -9 -13 0
-15 7 0
-15 14 0
15 -7 -14 0
-16 5 0
-16 15 0
16 -5 -15 0
-17 3 0
-17 16 0
17 -3 -16 0
18 -1 -17 0
18 1 17 0
-18 -1 17 0
-18 1 -17 0
19 18 0
-19 -18 0
23 22 0
-23 -22 0
25 24 0
-25 -24 0
27 26 0
-27 -26 0
29 28 0
-29 -28 0
31 30 0
-31 -30 0
33 32 0
-33 -32 0
35 34 0
-35 -34 0
37 36 0
-37 -36 0
-38 37 0
-38 17 0
38 -37 -17 0
-39 35 0
-39 38 0
39 -35 -38 0
-40 33 0
-40 39 0
40 -33 -39 0
-41 31 0
-41 40 0
41 -31 -40 0
-42 29 0
-42 41 0
42 -29 -41 0
-43 27 0
-43 42 0
43 -27 -42 0
-44 25 0
-44 43 0
44 -25 -43 0
-45 23 0
-45 44 0
45 -23 -44 0
-46 21 0
-46 45 0
46 -21 -45 0
47 46 0
-47 -46 0
48 -20 -47 0
48 20 47 0
-48 -20 47 0
-48 20 -47 0
49 48 0
-49 -48 0
50 -19 0
50 -49 0
-50 19 49 0
-51 10 0
-51 12 0
51 -10 -12 0
52 -51 -51 0
52 51 51 0
-52 -51 51 0
-52 51 -51 0
-53 8 0
-53 13 0
53 -8 -13 0
54 -53 -53 0
54 53 53 0
-54 -53 53 0
-54 53 -53 0
-55 52 0
-55 54 0
55 -52 -54 0
-56 6 0
-56 14 0
56 -6 -14 0
57 -56 -56 0
57 56 56 0
-57 -56 56 0
-57 56 -56 0
-58 55 0
-58 57 0
58 -55 -57 0
-59 4 0
-59 15 0
59 -4 -15 0
60 -59 -59 0
60 59 59 0
-60 -59 59 0
-60 59 -59 0
-61 58 0
-61 60 0
61 -58 -60 0
-62 2 0
-62 16 0
62 -2 -16 0
63 -62 -62 0
63 62 62 0
-63 -62 62 0
-63 62 -62 0
-64 61 0
-64 63 0
64 -61 -63 0
-66 36 0
-66 17 0
66 -36 -17 0
67 -65 -66 0
67 65 66 0
-67 -65 66 0
-67 65 -66 0
-68 64 0
-68 67 0
68 -64 -67 0
-69 34 0
-69 38 0
69 -34 -38 0
70 -69 -69 0
70 69 69 0
-70 -69 69 0
-70 69 -69 0
-71 68 0
-71 70 0
71 -68 -70 0
-72 32 0
-72 39 0
72 -32 -39 0
73 -72 -72 0
73 72 72 0
-73 -72 72 0
-73 72 -72 0
-74 71 0
-74 73 0
74 -71 -73 0
-75 30 0
-75 40 0
75 -30 -40 0
76 -75 -75 0
76 75 75 0
-76 -75 75 0
-76 75 -75 0
-77 74 0
-77 76 0
77 -74 -76 0
-78 28 0
-78 41 0
78 -28 -41 0
79 -78 -78 0
79 78 78 0
-79 -78 78 0
-79 78 -78 0
-80 77 0
-80 79 0
80 -77 -79 0
-81 26 0
-81 42 0
81 -26 -42 0
82 -81 -81 0
82 81 81 0
-82 -81 81 0
-82 81 -81 0
-83 80 0
-83 82 0
83 -80 -82 0
-84 24 0
-84 43 0
84 -24 -43 0
85 -84 -84 0
85 84 84 0
-85 -84 84 0
-85 84 -84 0
-86 83 0
-86 85 0
86 -83 -85 0
-87 22 0
-87 44 0
87 -22 -44 0
88 -87 -87 0
88 87 87 0
-88 -87 87 0
-88 87 -87 0
-89 86 0
-89 88 0
89 -86 -88 0
90 -46 -46 0
90 46 46 0
-90 -46 46 0
-90 46 -46 0
-91 89 0
-91 90 0
91 -89 -90 0
-93 92 0
-93 47 0
93 -92 -47 0
94 21 0
-94 -21 0
-95 94 0
-95 45 0
95 -94 -45 0
-96 92 0
-96 95 0
96 -92 -95 0
97 -93 -96 0
97 93 96 0
-97 -93 96 0
-97 93 -96 0
-98 91 0
-98 97 0
98 -91 -97 0
-101 99 0
-101 100 0
101 -99 -100 0
102 92 0
-102 -92 0
-103 102 0
-103 95 0
103 -102 -95 0
-104 99 0
-104 103 0
104 -99 -103 0
105 -101 -104 0
105 101 104 0
-105 -101 104 0
-105 101 -104 0
-106 98 0
-106 105 0
106 -98 -105 0
108 99 0
-108 -99 0
-109 108 0
-109 100 0
109 -108 -100 0
-110 107 0
-110 109 0
110 -107 -109 0
-111 108 0
-111 103 0
111 -108 -103 0
-112 107 0
-112 111 0
112 -107 -111 0
113 -110 -112 0
113 110 112 0
-113 -110 112 0
-113 110 -112 0
-114 106 0
-114 113 0
114 -106 -113 0
115 107 0
-115 -107 0
-116 115 0
-116 109 0
116 -115 -109 0
-117 115 0
-117 111 0
117 -115 -111 0
118 -116 -117 0
118 116 117 0
-118 -116 117 0
-118 116 -117 0
-119 114 0
-119 118 0
119 -114 -118 0
120 -50 0
120 -119 0
-120 50 119 0
120 0
